1639809
0,11,31,55,39,4,18,48,22,59,28,24,29,40,5,63,66,37,6,10,65,25,54,33,45,42,32,56,17,9,43,13,51,21,30,20,2,41,60,23,46,19,3,47,1,62,15,58,35,27,49,52,36,61,38,50,34,67,7,14,57,8,16,26,44,64,12,53,0